unsat
( c1000
  c1004
  c1008
  c101
  c1012
  c1016
  c1020
  c105
  c109
  c111
  c112
  c114
  c1164
  c1165
  c1166
  c1167
  c1168
  c1169
  c1170
  c1171
  c1172
  c1173
  c1174
  c1175
  c1176
  c1177
  c1178
  c1179
  c1180
  c1181
  c1191
  c1195
  c1199
  c1203
  c1207
  c1211
  c1215
  c1219
  c1223
  c1227
  c1231
  c1235
  c1239
  c124
  c1243
  c1247
  c1251
  c1255
  c1257
  c1258
  c1259
  c127
  c1270
  c1273
  c1278
  c1279
  c1283
  c1286
  c1289
  c1291
  c1297
  c13
  c1301
  c1303
  c1308
  c1309
  c1316
  c1318
  c1321
  c1324
  c1325
  c1326
  c1327
  c1328
  c1329
  c133
  c1330
  c1331
  c1332
  c1333
  c1334
  c1335
  c1336
  c1337
  c1338
  c1339
  c1340
  c1341
  c1342
  c1343
  c1344
  c1345
  c1346
  c1347
  c1348
  c1356
  c1359
  c1361
  c1369
  c137
  c1372
  c1377
  c1378
  c1382
  c1385
  c1388
  c1390
  c1391
  c1394
  c1399
  c140
  c1400
  c1407
  c1409
  c1412
  c1415
  c1416
  c1417
  c1418
  c1419
  c142
  c1420
  c1421
  c1422
  c1423
  c1424
  c1425
  c1426
  c1427
  c1428
  c1429
  c143
  c1430
  c1431
  c1432
  c1433
  c1434
  c1435
  c1436
  c1437
  c1438
  c1439
  c1447
  c1450
  c1452
  c1460
  c1463
  c1468
  c1469
  c1473
  c1476
  c1479
  c1481
  c1485
  c1490
  c1491
  c1498
  c1500
  c1503
  c1506
  c1507
  c1508
  c1509
  c151
  c1510
  c1511
  c1512
  c1513
  c1514
  c1515
  c1516
  c1517
  c1518
  c1519
  c1520
  c1521
  c1522
  c1523
  c1524
  c1525
  c1526
  c1527
  c1528
  c1529
  c1530
  c1538
  c1541
  c1543
  c155
  c1551
  c1554
  c1559
  c1560
  c1564
  c1567
  c157
  c1570
  c1572
  c1576
  c1581
  c1582
  c1589
  c1591
  c1594
  c1597
  c1598
  c1599
  c1600
  c1601
  c1602
  c1603
  c1604
  c1605
  c1606
  c1607
  c1608
  c1609
  c1610
  c1611
  c1612
  c1613
  c1614
  c1615
  c1616
  c1617
  c1618
  c1619
  c162
  c1620
  c1621
  c1629
  c163
  c1630
  c1631
  c1642
  c1645
  c1650
  c1651
  c1655
  c1658
  c1661
  c1663
  c1667
  c1672
  c1673
  c1680
  c1682
  c1685
  c1688
  c1689
  c1690
  c1691
  c1692
  c1693
  c1694
  c1695
  c1696
  c1697
  c1698
  c1699
  c170
  c1700
  c1701
  c1702
  c1703
  c1704
  c1705
  c1706
  c1707
  c1708
  c1709
  c1710
  c1711
  c1712
  c172
  c1720
  c1723
  c1725
  c1733
  c1736
  c1741
  c1742
  c1746
  c1749
  c1752
  c1754
  c1758
  c1763
  c1764
  c1771
  c1773
  c1776
  c1779
  c178
  c1780
  c1781
  c1782
  c1783
  c1784
  c1785
  c1786
  c1787
  c1788
  c1789
  c179
  c1790
  c1791
  c1792
  c1793
  c1794
  c1795
  c1796
  c1797
  c1798
  c1799
  c18
  c180
  c1800
  c1801
  c1802
  c1803
  c1811
  c1814
  c1816
  c182
  c1821
  c1824
  c1827
  c183
  c1832
  c1833
  c1837
  c1840
  c1843
  c1845
  c1846
  c185
  c1854
  c1855
  c1856
  c186
  c1862
  c1864
  c1867
  c1870
  c1871
  c1872
  c1873
  c1874
  c1875
  c1876
  c1877
  c1878
  c1879
  c188
  c1880
  c1881
  c1882
  c1883
  c1884
  c1885
  c1886
  c1887
  c1888
  c1889
  c189
  c1890
  c1891
  c1892
  c1893
  c1894
  c19
  c1902
  c1903
  c1904
  c191
  c1915
  c1918
  c192
  c1922
  c1923
  c1924
  c1928
  c1931
  c1934
  c1936
  c1937
  c194
  c1940
  c1945
  c1946
  c195
  c1953
  c1955
  c1958
  c1961
  c1962
  c1963
  c1964
  c1965
  c1966
  c1967
  c1968
  c1969
  c197
  c1970
  c1971
  c1972
  c1973
  c1974
  c1975
  c1976
  c1977
  c1978
  c1979
  c198
  c1980
  c1981
  c1982
  c1983
  c1984
  c1985
  c1993
  c1996
  c1998
  c20
  c200
  c2003
  c2004
  c2005
  c201
  c2013
  c2014
  c2019
  c2022
  c2025
  c2027
  c2036
  c2037
  c2038
  c2044
  c2046
  c2049
  c2052
  c2053
  c2054
  c2055
  c2056
  c2057
  c2058
  c2059
  c2060
  c2061
  c2062
  c2063
  c2064
  c2065
  c2066
  c2067
  c2068
  c2069
  c2070
  c2071
  c2072
  c2073
  c2074
  c2075
  c2076
  c2084
  c2085
  c2098
  c21
  c210
  c2102
  c2106
  c2110
  c2114
  c2118
  c212
  c2122
  c2126
  c213
  c2130
  c2134
  c2138
  c2142
  c2146
  c2150
  c2154
  c2158
  c2162
  c2166
  c22
  c223
  c226
  c23
  c231
  c2310
  c2311
  c2312
  c2313
  c2314
  c2315
  c2316
  c2317
  c2318
  c2319
  c232
  c2320
  c2321
  c2322
  c2323
  c2324
  c2325
  c2326
  c2327
  c2337
  c2341
  c2345
  c2349
  c2353
  c2357
  c236
  c2361
  c2365
  c2369
  c2373
  c2377
  c2381
  c2385
  c2389
  c239
  c2393
  c2397
  c24
  c2401
  c2403
  c2404
  c241
  c2413
  c2415
  c2423
  c2424
  c2428
  c2429
  c2432
  c2435
  c2437
  c2438
  c244
  c2443
  c2447
  c2449
  c2453
  c2454
  c2455
  c2462
  c2464
  c2467
  c2470
  c2471
  c2472
  c2473
  c2474
  c2475
  c2476
  c2477
  c2478
  c2479
  c248
  c2480
  c2481
  c2482
  c2483
  c2484
  c2485
  c2486
  c2487
  c2488
  c2489
  c2490
  c2491
  c2492
  c2493
  c2494
  c25
  c2502
  c2503
  c2514
  c2515
  c2518
  c2523
  c2524
  c2528
  c253
  c2531
  c2534
  c2536
  c2537
  c254
  c2541
  c2545
  c2546
  c2547
  c2553
  c2555
  c2558
  c2561
  c2562
  c2563
  c2564
  c2565
  c2566
  c2567
  c2568
  c2569
  c2570
  c2571
  c2572
  c2573
  c2574
  c2575
  c2576
  c2577
  c2578
  c2579
  c2580
  c2581
  c2582
  c2583
  c2584
  c2585
  c2593
  c2594
  c26
  c2605
  c2606
  c2609
  c261
  c2614
  c2615
  c2619
  c2622
  c2625
  c2627
  c2628
  c263
  c2631
  c2633
  c2636
  c2637
  c2644
  c2646
  c2649
  c2652
  c2653
  c2654
  c2655
  c2656
  c2657
  c2658
  c2659
  c2660
  c2661
  c2662
  c2663
  c2664
  c2665
  c2666
  c2667
  c2668
  c2669
  c2670
  c2671
  c2672
  c2673
  c2674
  c2675
  c2676
  c2684
  c2685
  c269
  c2696
  c2697
  c27
  c270
  c2700
  c2705
  c2706
  c271
  c2710
  c2713
  c2716
  c2718
  c2719
  c2722
  c2724
  c2727
  c2728
  c273
  c2735
  c2737
  c274
  c2740
  c2743
  c2744
  c2745
  c2746
  c2747
  c2748
  c2749
  c2750
  c2751
  c2752
  c2753
  c2754
  c2755
  c2756
  c2757
  c2758
  c2759
  c276
  c2760
  c2761
  c2762
  c2763
  c2764
  c2765
  c2766
  c2767
  c277
  c2775
  c2776
  c2787
  c2788
  c279
  c2791
  c2796
  c2797
  c28
  c280
  c2800
  c2801
  c2804
  c2807
  c2809
  c2810
  c2813
  c2815
  c2818
  c2819
  c282
  c2826
  c2828
  c283
  c2831
  c2834
  c2835
  c2836
  c2837
  c2838
  c2839
  c2840
  c2841
  c2842
  c2843
  c2844
  c2845
  c2846
  c2847
  c2848
  c2849
  c285
  c2850
  c2851
  c2852
  c2853
  c2854
  c2855
  c2856
  c2857
  c2858
  c286
  c2866
  c2867
  c2878
  c2879
  c288
  c2882
  c2887
  c2888
  c289
  c2892
  c2895
  c2898
  c29
  c2900
  c2901
  c2904
  c2906
  c2909
  c291
  c2910
  c2917
  c2919
  c292
  c2922
  c2925
  c2926
  c2927
  c2928
  c2929
  c2930
  c2931
  c2932
  c2933
  c2934
  c2935
  c2936
  c2937
  c2938
  c2939
  c2940
  c2941
  c2942
  c2943
  c2944
  c2945
  c2946
  c2947
  c2948
  c2949
  c2957
  c2958
  c2967
  c2968
  c2970
  c2978
  c2979
  c2983
  c2986
  c2989
  c2991
  c2992
  c2996
  c2999
  c30
  c3000
  c3002
  c3008
  c301
  c3010
  c3013
  c3016
  c3017
  c3018
  c3019
  c302
  c3020
  c3021
  c3022
  c3023
  c3024
  c3025
  c3026
  c3027
  c3028
  c3029
  c3030
  c3031
  c3032
  c3033
  c3034
  c3035
  c3036
  c3037
  c3038
  c3039
  c304
  c3040
  c3048
  c3051
  c3053
  c3061
  c3062
  c3064
  c3069
  c3070
  c3073
  c3074
  c3077
  c3080
  c3082
  c3083
  c3086
  c3088
  c3091
  c3092
  c3099
  c31
  c3101
  c3104
  c3107
  c3108
  c3109
  c3110
  c3111
  c3112
  c3113
  c3114
  c3115
  c3116
  c3117
  c3118
  c3119
  c3120
  c3121
  c3122
  c3123
  c3124
  c3125
  c3126
  c3127
  c3128
  c3129
  c3130
  c3131
  c3139
  c314
  c3140
  c3149
  c3151
  c3159
  c3160
  c3165
  c317
  c3171
  c3173
  c3174
  c3178
  c3182
  c3183
  c3184
  c3190
  c3192
  c3195
  c3198
  c3199
  c32
  c3200
  c3201
  c3202
  c3203
  c3204
  c3205
  c3206
  c3207
  c3208
  c3209
  c3210
  c3211
  c3212
  c3213
  c3214
  c3215
  c3216
  c3217
  c3218
  c3219
  c3220
  c3221
  c3222
  c323
  c3230
  c3231
  c3244
  c3248
  c3252
  c3256
  c3260
  c3264
  c3268
  c327
  c3272
  c3276
  c3280
  c3284
  c3288
  c3292
  c3296
  c33
  c330
  c3300
  c3304
  c3308
  c3312
  c332
  c333
  c339
  c34
  c344
  c345
  c3456
  c3457
  c3458
  c3459
  c3460
  c3461
  c3462
  c3463
  c3464
  c3465
  c3466
  c3467
  c3468
  c3469
  c3470
  c3471
  c3472
  c3473
  c3474
  c3475
  c3476
  c3477
  c3478
  c3479
  c3480
  c3481
  c3482
  c3483
  c3487
  c3491
  c3495
  c3499
  c35
  c3503
  c3507
  c3511
  c3515
  c3519
  c352
  c3523
  c3527
  c3531
  c3535
  c3539
  c354
  c3543
  c3547
  c3549
  c3550
  c3559
  c3561
  c3569
  c3570
  c3578
  c3580
  c3581
  c3583
  c3584
  c3589
  c3593
  c36
  c360
  c3600
  c3601
  c3602
  c3608
  c361
  c3610
  c3613
  c3616
  c3617
  c3618
  c3619
  c362
  c3620
  c3621
  c3622
  c3623
  c3624
  c3625
  c3626
  c3627
  c3628
  c3629
  c3630
  c3631
  c3632
  c3633
  c3634
  c3635
  c3636
  c3637
  c3638
  c3639
  c364
  c3640
  c3648
  c3649
  c365
  c3661
  c3664
  c3669
  c367
  c3670
  c3677
  c3679
  c368
  c3680
  c3681
  c3682
  c3683
  c3686
  c3691
  c3692
  c3699
  c37
  c370
  c3701
  c3704
  c3707
  c3708
  c3709
  c371
  c3710
  c3711
  c3712
  c3713
  c3714
  c3715
  c3716
  c3717
  c3718
  c3719
  c3720
  c3721
  c3722
  c3723
  c3724
  c3725
  c3726
  c3727
  c3728
  c3729
  c373
  c3730
  c3731
  c3739
  c374
  c3740
  c3752
  c3755
  c376
  c3760
  c3761
  c3768
  c377
  c3770
  c3771
  c3773
  c3774
  c3777
  c3782
  c3783
  c379
  c3790
  c3792
  c3795
  c3798
  c3799
  c38
  c380
  c3800
  c3801
  c3802
  c3803
  c3804
  c3805
  c3806
  c3807
  c3808
  c3809
  c3810
  c3811
  c3812
  c3813
  c3814
  c3815
  c3816
  c3817
  c3818
  c3819
  c382
  c3820
  c3821
  c3822
  c383
  c3830
  c3831
  c3840
  c3842
  c3850
  c3851
  c3859
  c3861
  c3862
  c3864
  c3865
  c3868
  c3873
  c3874
  c3881
  c3883
  c3886
  c3889
  c3890
  c3891
  c3892
  c3893
  c3894
  c3895
  c3896
  c3897
  c3898
  c3899
  c39
  c3900
  c3901
  c3902
  c3903
  c3904
  c3905
  c3906
  c3907
  c3908
  c3909
  c3910
  c3911
  c3912
  c3913
  c392
  c3921
  c3924
  c3926
  c393
  c3934
  c3937
  c3942
  c3943
  c395
  c3950
  c3952
  c3953
  c3955
  c3956
  c3959
  c3964
  c3965
  c3972
  c3974
  c3977
  c3980
  c3981
  c3982
  c3983
  c3984
  c3985
  c3986
  c3987
  c3988
  c3989
  c3990
  c3991
  c3992
  c3993
  c3994
  c3995
  c3996
  c3997
  c3998
  c3999
  c4
  c40
  c4000
  c4001
  c4002
  c4003
  c4004
  c4012
  c4013
  c4025
  c4028
  c4033
  c4034
  c4041
  c4043
  c4044
  c4046
  c4047
  c405
  c4050
  c4055
  c4056
  c4063
  c4065
  c4068
  c4071
  c4072
  c4073
  c4074
  c4075
  c4076
  c4077
  c4078
  c4079
  c408
  c4080
  c4081
  c4082
  c4083
  c4084
  c4085
  c4086
  c4087
  c4088
  c4089
  c4090
  c4091
  c4092
  c4093
  c4094
  c4095
  c41
  c4103
  c4104
  c4113
  c4116
  c4123
  c4124
  c4132
  c4134
  c4135
  c4137
  c4138
  c414
  c4144
  c4146
  c4147
  c4154
  c4156
  c4159
  c4162
  c4163
  c4164
  c4165
  c4166
  c4167
  c4168
  c4169
  c4170
  c4171
  c4172
  c4173
  c4174
  c4175
  c4176
  c4177
  c4178
  c4179
  c418
  c4180
  c4181
  c4182
  c4183
  c4184
  c4185
  c4186
  c4194
  c4197
  c4199
  c42
  c4207
  c421
  c4210
  c4215
  c4216
  c4223
  c4225
  c4226
  c4228
  c4229
  c423
  c4232
  c4237
  c4238
  c424
  c4245
  c4247
  c4250
  c4253
  c4254
  c4255
  c4256
  c4257
  c4258
  c4259
  c4260
  c4261
  c4262
  c4263
  c4264
  c4265
  c4266
  c4267
  c4268
  c4269
  c4270
  c4271
  c4272
  c4273
  c4274
  c4275
  c4276
  c4277
  c4285
  c4286
  c4295
  c4298
  c4299
  c43
  c430
  c4305
  c4306
  c4314
  c4316
  c4317
  c4319
  c4320
  c4328
  c4329
  c4330
  c4336
  c4338
  c4341
  c4344
  c4345
  c4346
  c4347
  c4348
  c4349
  c435
  c4350
  c4351
  c4352
  c4353
  c4354
  c4355
  c4356
  c4357
  c4358
  c4359
  c436
  c4360
  c4361
  c4362
  c4363
  c4364
  c4365
  c4366
  c4367
  c4368
  c4376
  c4377
  c4390
  c4394
  c4398
  c44
  c4402
  c4406
  c4410
  c4414
  c4418
  c4422
  c4426
  c443
  c4430
  c4434
  c4438
  c4442
  c4446
  c445
  c4450
  c4454
  c4458
  c45
  c451
  c452
  c453
  c455
  c456
  c458
  c459
  c4602
  c4603
  c4604
  c4605
  c4606
  c4607
  c4608
  c4609
  c461
  c4610
  c4611
  c4612
  c4613
  c4614
  c4615
  c4616
  c4617
  c4618
  c4619
  c462
  c4629
  c4633
  c4637
  c464
  c4641
  c4645
  c4649
  c465
  c4653
  c4657
  c4661
  c4665
  c4669
  c467
  c4673
  c4677
  c468
  c4681
  c4685
  c4689
  c4693
  c4696
  c470
  c4705
  c471
  c4715
  c4724
  c4726
  c4727
  c4729
  c473
  c4730
  c4735
  c4739
  c474
  c4744
  c4756
  c4757
  c4758
  c4759
  c4762
  c4763
  c4764
  c4765
  c4766
  c4767
  c4768
  c4769
  c4770
  c4771
  c4772
  c4773
  c4774
  c4775
  c4776
  c4777
  c4778
  c4779
  c4780
  c4781
  c4782
  c4783
  c4784
  c4785
  c4794
  c4795
  c4807
  c4810
  c4816
  c4823
  c4825
  c4826
  c4828
  c4829
  c483
  c4835
  c484
  c4847
  c4848
  c4849
  c4850
  c4853
  c4854
  c4855
  c4856
  c4857
  c4858
  c4859
  c486
  c4860
  c4861
  c4862
  c4863
  c4864
  c4865
  c4866
  c4867
  c4868
  c4869
  c4870
  c4871
  c4872
  c4873
  c4874
  c4875
  c4876
  c4885
  c4886
  c4898
  c49
  c4901
  c4907
  c4914
  c4916
  c4917
  c4919
  c4920
  c4926
  c4938
  c4939
  c4940
  c4941
  c4944
  c4945
  c4946
  c4947
  c4948
  c4949
  c4950
  c4951
  c4952
  c4953
  c4954
  c4955
  c4956
  c4957
  c4958
  c4959
  c496
  c4960
  c4961
  c4962
  c4963
  c4964
  c4965
  c4966
  c4967
  c4968
  c4977
  c4986
  c499
  c4996
  c5005
  c5007
  c5008
  c5010
  c5011
  c5017
  c5029
  c5030
  c5031
  c5032
  c5035
  c5036
  c5037
  c5038
  c5039
  c5040
  c5041
  c5042
  c5043
  c5044
  c5045
  c5046
  c5047
  c5048
  c5049
  c505
  c5050
  c5051
  c5052
  c5053
  c5054
  c5055
  c5056
  c5057
  c5058
  c5059
  c5068
  c5077
  c5089
  c509
  c5096
  c5098
  c5099
  c5101
  c5102
  c5108
  c512
  c5120
  c5121
  c5122
  c5123
  c5126
  c5127
  c5128
  c5129
  c5130
  c5131
  c5132
  c5133
  c5134
  c5135
  c5136
  c5137
  c5138
  c5139
  c514
  c5140
  c5141
  c5142
  c5143
  c5144
  c5145
  c5146
  c5147
  c5148
  c5149
  c515
  c5150
  c5158
  c5159
  c5171
  c5174
  c5180
  c5184
  c5187
  c5189
  c5190
  c5192
  c5193
  c5199
  c521
  c5211
  c5212
  c5213
  c5214
  c5217
  c5218
  c5219
  c5220
  c5221
  c5222
  c5223
  c5224
  c5225
  c5226
  c5227
  c5228
  c5229
  c5230
  c5231
  c5232
  c5233
  c5234
  c5235
  c5236
  c5237
  c5238
  c5239
  c5240
  c5241
  c5250
  c5259
  c526
  c5269
  c527
  c5278
  c5280
  c5281
  c5283
  c5284
  c5290
  c53
  c5302
  c5303
  c5304
  c5305
  c5308
  c5309
  c5310
  c5311
  c5312
  c5313
  c5314
  c5315
  c5316
  c5317
  c5318
  c5319
  c5320
  c5321
  c5322
  c5323
  c5324
  c5325
  c5326
  c5327
  c5328
  c5329
  c5330
  c5331
  c5332
  c534
  c5340
  c5341
  c5345
  c5353
  c5356
  c536
  c5362
  c5366
  c5369
  c5370
  c5371
  c5372
  c5374
  c5375
  c5381
  c5393
  c5394
  c5395
  c5396
  c5399
  c5400
  c5401
  c5402
  c5403
  c5404
  c5405
  c5406
  c5407
  c5408
  c5409
  c5410
  c5411
  c5412
  c5413
  c5414
  c5415
  c5416
  c5417
  c5418
  c5419
  c542
  c5420
  c5421
  c5422
  c5423
  c543
  c5432
  c544
  c5441
  c5453
  c546
  c5460
  c5462
  c5463
  c5465
  c5466
  c547
  c5472
  c5484
  c5485
  c5486
  c5487
  c549
  c5490
  c5491
  c5492
  c5493
  c5494
  c5495
  c5496
  c5497
  c5498
  c5499
  c550
  c5500
  c5501
  c5502
  c5503
  c5504
  c5505
  c5506
  c5507
  c5508
  c5509
  c5510
  c5511
  c5512
  c5513
  c5514
  c552
  c5522
  c5523
  c553
  c5536
  c5540
  c5544
  c5548
  c555
  c5552
  c5556
  c556
  c5560
  c5564
  c5568
  c5572
  c5576
  c558
  c5580
  c5584
  c5588
  c559
  c5592
  c5596
  c5600
  c5604
  c561
  c562
  c564
  c565
  c57
  c574
  c5748
  c5749
  c575
  c5750
  c5751
  c5752
  c5753
  c5754
  c5755
  c5756
  c5757
  c5758
  c5759
  c5760
  c5761
  c5762
  c5763
  c5764
  c5765
  c5766
  c5767
  c5768
  c5769
  c577
  c5770
  c5771
  c5772
  c5773
  c5774
  c5775
  c5779
  c5783
  c5787
  c5791
  c5795
  c5799
  c5803
  c5807
  c5811
  c5815
  c5819
  c5823
  c5827
  c5831
  c5835
  c5839
  c5842
  c5851
  c5861
  c587
  c5870
  c5872
  c5881
  c5885
  c5890
  c590
  c5902
  c5903
  c5904
  c5905
  c5908
  c5909
  c5910
  c5911
  c5912
  c5913
  c5914
  c5915
  c5916
  c5917
  c5918
  c5919
  c5920
  c5921
  c5922
  c5923
  c5924
  c5925
  c5926
  c5927
  c5928
  c5929
  c5930
  c5931
  c5932
  c5943
  c5945
  c5950
  c596
  c5962
  c5966
  c5969
  c5971
  c5981
  c5993
  c5994
  c5995
  c5996
  c5999
  c6
  c600
  c6000
  c6001
  c6002
  c6003
  c6004
  c6005
  c6006
  c6007
  c6008
  c6009
  c6010
  c6011
  c6012
  c6013
  c6014
  c6015
  c6016
  c6017
  c6018
  c6019
  c6020
  c6021
  c6022
  c6023
  c603
  c6034
  c6036
  c6044
  c6047
  c605
  c6053
  c6057
  c606
  c6060
  c6062
  c6072
  c6084
  c6085
  c6086
  c6087
  c6090
  c6091
  c6092
  c6093
  c6094
  c6095
  c6096
  c6097
  c6098
  c6099
  c61
  c6100
  c6101
  c6102
  c6103
  c6104
  c6105
  c6106
  c6107
  c6108
  c6109
  c6110
  c6111
  c6112
  c6113
  c6114
  c612
  c6123
  c6132
  c6142
  c6151
  c6153
  c6163
  c617
  c6175
  c6176
  c6177
  c6178
  c618
  c6181
  c6182
  c6183
  c6184
  c6185
  c6186
  c6187
  c6188
  c6189
  c6190
  c6191
  c6192
  c6193
  c6194
  c6195
  c6196
  c6197
  c6198
  c6199
  c6200
  c6201
  c6202
  c6203
  c6204
  c6205
  c6214
  c6223
  c6235
  c6239
  c6242
  c6244
  c625
  c6254
  c6266
  c6267
  c6268
  c6269
  c627
  c6272
  c6273
  c6274
  c6275
  c6276
  c6277
  c6278
  c6279
  c6280
  c6281
  c6282
  c6283
  c6284
  c6285
  c6286
  c6287
  c6288
  c6289
  c6290
  c6291
  c6292
  c6293
  c6294
  c6295
  c6296
  c6307
  c6309
  c6314
  c6324
  c633
  c6333
  c6335
  c634
  c6345
  c635
  c6357
  c6358
  c6359
  c6360
  c6363
  c6364
  c6365
  c6366
  c6367
  c6368
  c6369
  c637
  c6370
  c6371
  c6372
  c6373
  c6374
  c6375
  c6376
  c6377
  c6378
  c6379
  c638
  c6380
  c6381
  c6382
  c6383
  c6384
  c6385
  c6386
  c6387
  c6396
  c640
  c6405
  c641
  c6415
  c6424
  c6426
  c643
  c6436
  c644
  c6448
  c6449
  c6450
  c6451
  c6454
  c6455
  c6456
  c6457
  c6458
  c6459
  c646
  c6460
  c6461
  c6462
  c6463
  c6464
  c6465
  c6466
  c6467
  c6468
  c6469
  c647
  c6470
  c6471
  c6472
  c6473
  c6474
  c6475
  c6476
  c6477
  c6478
  c6489
  c649
  c6491
  c6499
  c65
  c650
  c6502
  c6508
  c6510
  c6512
  c6515
  c6517
  c652
  c6527
  c653
  c6539
  c6540
  c6541
  c6542
  c6545
  c6546
  c6547
  c6548
  c6549
  c655
  c6550
  c6551
  c6552
  c6553
  c6554
  c6555
  c6556
  c6557
  c6558
  c6559
  c656
  c6560
  c6561
  c6562
  c6563
  c6564
  c6565
  c6566
  c6567
  c6568
  c6569
  c6578
  c6587
  c6597
  c6606
  c6608
  c6618
  c6630
  c6631
  c6632
  c6633
  c6636
  c6637
  c6638
  c6639
  c6640
  c6641
  c6642
  c6643
  c6644
  c6645
  c6646
  c6647
  c6648
  c6649
  c665
  c6650
  c6651
  c6652
  c6653
  c6654
  c6655
  c6656
  c6657
  c6658
  c6659
  c666
  c6660
  c6668
  c6669
  c668
  c6682
  c6686
  c6690
  c6694
  c6698
  c6702
  c6706
  c6710
  c6714
  c6718
  c6722
  c6726
  c6730
  c6734
  c6738
  c6742
  c6746
  c675
  c6750
  c678
  c681
  c686
  c687
  c6894
  c6895
  c6896
  c6897
  c6898
  c6899
  c69
  c6900
  c6901
  c6902
  c6903
  c6904
  c6905
  c6906
  c6907
  c6908
  c6909
  c691
  c6910
  c6911
  c6921
  c6925
  c6929
  c6937
  c694
  c6941
  c6945
  c6949
  c6953
  c6957
  c696
  c6961
  c6965
  c6969
  c697
  c6977
  c6981
  c6985
  c6987
  c6997
  c7007
  c7016
  c7027
  c7031
  c7036
  c7048
  c7049
  c7050
  c7051
  c7054
  c7055
  c7056
  c7058
  c7061
  c7062
  c7064
  c7065
  c7067
  c7068
  c7070
  c7071
  c7073
  c7076
  c7077
  c708
  c7086
  c709
  c7096
  c710
  c7106
  c7115
  c7127
  c7139
  c7140
  c7141
  c7142
  c7145
  c7146
  c7147
  c7149
  c7152
  c7153
  c7155
  c7156
  c7158
  c7159
  c716
  c7161
  c7162
  c7164
  c7167
  c7168
  c7177
  c718
  c7187
  c7197
  c7206
  c7218
  c7230
  c7231
  c7232
  c7233
  c7236
  c7237
  c7238
  c724
  c7240
  c7243
  c7244
  c7246
  c7247
  c7249
  c725
  c7250
  c7252
  c7253
  c7255
  c7256
  c7258
  c7259
  c726
  c7268
  c7278
  c728
  c7288
  c729
  c7297
  c73
  c7309
  c731
  c732
  c7321
  c7322
  c7323
  c7324
  c7327
  c7328
  c7329
  c7331
  c7334
  c7335
  c7337
  c7338
  c734
  c7340
  c7341
  c7343
  c7346
  c7347
  c7349
  c735
  c7350
  c7359
  c7369
  c737
  c7379
  c738
  c7388
  c740
  c7400
  c741
  c7412
  c7413
  c7414
  c7415
  c7418
  c7419
  c7420
  c7422
  c7425
  c7426
  c7428
  c7429
  c743
  c7431
  c7432
  c7434
  c7437
  c7438
  c744
  c7440
  c7441
  c7450
  c746
  c7460
  c747
  c7470
  c7479
  c7491
  c7503
  c7504
  c7505
  c7506
  c7509
  c7510
  c7511
  c7513
  c7516
  c7517
  c7519
  c7520
  c7522
  c7523
  c7525
  c7528
  c7529
  c7531
  c7532
  c7541
  c7551
  c756
  c7561
  c757
  c7570
  c7582
  c759
  c7594
  c7595
  c7596
  c7597
  c7600
  c7601
  c7602
  c7604
  c7607
  c7608
  c7610
  c7611
  c7613
  c7614
  c7616
  c7619
  c7620
  c7622
  c7623
  c7632
  c7642
  c7652
  c7661
  c7673
  c7685
  c7686
  c7687
  c7688
  c769
  c7691
  c7692
  c7693
  c7695
  c7696
  c7698
  c7699
  c77
  c7701
  c7702
  c7704
  c7705
  c7707
  c7710
  c7711
  c7713
  c7714
  c772
  c7723
  c7733
  c7743
  c7752
  c7764
  c777
  c7776
  c7777
  c7778
  c7779
  c778
  c7782
  c7783
  c7786
  c7787
  c7789
  c7790
  c7792
  c7793
  c7795
  c7796
  c7798
  c7801
  c7802
  c7804
  c7805
  c7814
  c7815
  c782
  c7828
  c7832
  c7836
  c7840
  c7848
  c785
  c7852
  c7856
  c7860
  c7864
  c7868
  c787
  c7872
  c7876
  c788
  c7880
  c7888
  c7892
  c7896
  c794
  c799
  c800
  c8040
  c8041
  c8042
  c8044
  c8045
  c8046
  c8047
  c8048
  c8049
  c8050
  c8051
  c8052
  c8054
  c8055
  c8056
  c8057
  c8067
  c807
  c809
  c81
  c8134
  c8144
  c815
  c8154
  c816
  c8164
  c817
  c8182
  c819
  c8191
  c820
  c8200
  c822
  c823
  c8233
  c8243
  c825
  c8253
  c826
  c8263
  c8273
  c828
  c8282
  c829
  c8291
  c831
  c832
  c8324
  c8334
  c834
  c8344
  c835
  c8354
  c8364
  c837
  c8373
  c838
  c8382
  c8415
  c8425
  c8435
  c8445
  c8455
  c8464
  c847
  c8473
  c848
  c85
  c850
  c8506
  c8515
  c8525
  c8534
  c8546
  c8555
  c8564
  c857
  c8597
  c860
  c8607
  c8617
  c8627
  c863
  c8637
  c8646
  c8655
  c8688
  c869
  c8698
  c8708
  c8718
  c8728
  c873
  c8737
  c8746
  c876
  c8779
  c878
  c8788
  c879
  c8798
  c8807
  c8819
  c8828
  c8837
  c8870
  c8880
  c8890
  c89
  c890
  c8900
  c891
  c8910
  c8919
  c892
  c8928
  c8960
  c8961
  c8974
  c8978
  c898
  c8982
  c8986
  c8990
  c8994
  c8998
  c900
  c9002
  c9006
  c9010
  c9014
  c9018
  c9022
  c9026
  c9030
  c9034
  c9038
  c9042
  c906
  c907
  c908
  c910
  c911
  c913
  c914
  c916
  c917
  c9183
  c9186
  c9187
  c9188
  c9189
  c919
  c9190
  c9191
  c9192
  c9193
  c9194
  c9195
  c9196
  c9197
  c9198
  c9199
  c920
  c9200
  c9201
  c9202
  c9203
  c9213
  c9215
  c9219
  c922
  c9223
  c9227
  c923
  c9231
  c9235
  c9239
  c9243
  c9247
  c925
  c9250
  c9254
  c9258
  c926
  c9262
  c9266
  c9270
  c9274
  c9278
  c928
  c9282
  c9287
  c929
  c9291
  c9294
  c9295
  c9299
  c93
  c9303
  c9307
  c9311
  c9314
  c9315
  c9319
  c9323
  c9326
  c9327
  c9330
  c9331
  c9335
  c9339
  c9342
  c9343
  c9347
  c9350
  c9351
  c9355
  c9358
  c9359
  c9362
  c9363
  c9366
  c9367
  c9370
  c9371
  c9374
  c9375
  c9378
  c9379
  c938
  c9382
  c9383
  c9386
  c9387
  c9390
  c9391
  c9394
  c9395
  c9398
  c9399
  c9402
  c9403
  c9406
  c9407
  c9410
  c9411
  c9414
  c9415
  c9418
  c9419
  c9422
  c9423
  c9426
  c9427
  c9430
  c9431
  c9432
  c9434
  c9435
  c9436
  c9438
  c9439
  c9440
  c9442
  c9443
  c9444
  c9446
  c9447
  c9448
  c9450
  c9451
  c9452
  c9454
  c9455
  c9456
  c9458
  c9459
  c9460
  c9462
  c9463
  c9464
  c9466
  c9467
  c9468
  c9470
  c9471
  c9472
  c9474
  c9475
  c9476
  c9478
  c9479
  c9480
  c9482
  c9483
  c9484
  c9486
  c9487
  c9488
  c9490
  c9491
  c9492
  c9494
  c9495
  c9496
  c9498
  c9499
  c9500
  c9502
  c9503
  c9504
  c9506
  c9507
  c9508
  c9510
  c9511
  c9512
  c9514
  c9515
  c9516
  c9518
  c9519
  c952
  c9520
  c9522
  c9523
  c9524
  c9526
  c9527
  c9528
  c9529
  c9530
  c9531
  c9532
  c9535
  c9536
  c9537
  c9538
  c9539
  c9540
  c9542
  c9544
  c9545
  c9548
  c956
  c960
  c964
  c968
  c97
  c972
  c976
  c980
  c984
  c988
  c992
  c996 )
